300
500
350
350
348
344
343
342
341
340
339
338
338
338
337
336
335
334
333
333
331
328
327
327
325
322
320
319
318
317
317
309
309
309
308
308
308
307
307
304
303
303
303
303
302
302
302
300
296
296
296
293
291
289
287
287
286
284
282
281
281
281
281
280
279
279
277
275
274
274
272
271
270
268
268
267
265
264
262
261
259
259
259
258
258
258
257
256
256
253
253
252
252
251
249
249
248
247
246
246
244
244
242
242
241
241
239
238
237
237
237
236
233
232
231
231
231
230
230
230
228
228
226
225
225
223
222
220
218
218
217
217
216
216
215
215
214
213
213
212
212
208
206
205
205
204
202
202
202
201
200
199
199
196
196
196
195
195
195
192
192
192
192
191
191
190
190
187
187
186
185
185
184
181
178
177
177
176
174
174
173
173
173
172
170
169
168
168
168
167
167
166
166
166
166
165
165
163
163
163
163
160
159
159
155
155
154
153
152
152
152
151
148
147
147
147
145
144
142
139
137
136
135
134
132
130
130
129
129
127
127
127
126
124
123
123
122
122
122
120
120
118
117
117
116
115
115
110
110
106
106
103
102
102
102
101
101
99
99
99
98
97
97
96
95
95
92
92
91
91
91
87
86
85
82
82
79
76
75
74
74
73
69
68
67
66
65
64
64
61
58
58
57
56
55
54
54
53
52
52
51
50
